problem_generation/data/GISP/train/er_n=61_m=1081_p=0.60_SET2_setparam=100.00_alpha=0.50_404.lp
maximize
OBJ:100x0 + 100x1 + 100x2 + 100x3 + 100x4 + 100x5 + 100x6 + 100x7 + 100x8 + 100x9 + 100x10 + 100x11 + 100x12 + 100x13 + 100x14 + 100x15 + 100x16 + 100x17 + 100x18 + 100x19 + 100x20 + 100x21 + 100x22 + 100x23 + 100x24 + 100x25 + 100x26 + 100x27 + 100x28 + 100x29 + 100x30 + 100x31 + 100x32 + 100x33 + 100x34 + 100x35 + 100x36 + 100x37 + 100x38 + 100x39 + 100x40 + 100x41 + 100x42 + 100x43 + 100x44 + 100x45 + 100x46 + 100x47 + 100x48 + 100x49 + 100x50 + 100x51 + 100x52 + 100x53 + 100x54 + 100x55 + 100x56 + 100x57 + 100x58 + 100x59 + 100x60 - y15_21 - y15_39 - y28_58 - y7_35 - y8_9 - y0_5 - y0_14 - y6_48 - y40_50 - y21_46 - y6_57 - y10_36 - y41_51 - y2_32 - y10_45 - y3_6 - y44_56 - y2_50 - y3_15 - y3_24 - y32_60 - y3_33 - y22_46 - y14_42 - y7_12 - y36_48 - y15_25 - y47_48 - y18_30 - y40_45 - y6_52 - y25_38 - y44_51 - y22_23 - y14_19 - y22_32 - y13_51 - y36_43 - y17_39 - y28_39 - y17_48 - y9_44 - y28_57 - y9_53 - y6_29 - y6_38 - y6_47 - y21_45 - y2_13 - y10_35 - y2_31 - y25_33 - y51_54 - y14_23 - y32_59 - y13_55 - y16_51 - y36_38 - y36_47 - y55_60 - y5_41 - y47_56 - y5_50 - y9_57 - y6_33 - y39_48 - y20_53 - y54_55 - y25_28 - y10_39 - y12_58 - y2_35 - y32_36 - y13_32 - y24_32 - y3_9 - y14_18 - y16_37 - y1_48 - y13_50 - y35_59 - y36_42 - y5_36 - y36_51 - y47_51 - y5_45 - y6_19 - y50_53 - y6_37 - y42_58 - y39_52 - y31_48 - y31_57 - y54_59 - y12_53 - y23_53 - y4_49 - y24_27 - y32_40 - y32_49 - y1_43 - y35_45 - y16_59 - y17_33 - y28_33 - y5_49 - y6_14 - y5_58 - y6_23 - y27_55 - y20_34 - y31_34 - y20_43 - y31_43 - y12_39 - y23_39 - y20_52 - y12_48 - y12_57 - y1_29 - y13_31 - y43_44 - y16_27 - y35_40 - y24_49 - y35_49 - y35_58 - y16_54 - y9_15 - y17_37 - y9_33 - y6_18 - y27_50 - y27_59 - y30_55 - y11_60 - y39_42 - y20_38 - y12_34 - y2_11 - y4_30 - y31_47 - y20_56 - y4_39 - y12_52 - y13_17 - y4_48 - y1_24 - y32_39 - y34_58 - y16_31 - y13_44 - y24_44 - y35_44 - y16_40 - y1_51 - y16_49 - y38_46 - y17_23 - y15_53 - y38_55 - y5_30 - y6_13 - y30_41 - y42_43 - y0_37 - y42_52 - y0_46 - y12_20 - y31_42 - y12_38 - y31_51 - y1_19 - y13_21 - y53_57 - y34_53 - y13_30 - y16_35 - y1_46 - y38_41 - y26_48 - y49_50 - y5_25 - y7_44 - y49_59 - y7_53 - y19_27 - y19_45 - y27_58 - y0_41 - y19_54 - y30_54 - y0_50 - y20_28 - y11_59 - y52_60 - y4_20 - y34_39 - y24_25 - y34_57 - y45_57 - y37_53 - y16_30 - y46_49 - y7_48 - y8_13 - y18_48 - y19_22 - y27_35 - y8_31 - y8_40 - y30_40 - y11_36 - y30_49 - y4_6 - y41_55 - y52_55 - y33_51 - y12_28 - y23_28 - y33_60 - y44_60 - y12_37 - y23_37 - y25_56 - y4_33 - y1_9 - y37_39 - y22_50 - y45_52 - y3_46 - y14_46 - y37_48 - y14_55 - y26_29 - y5_6 - y7_25 - y18_25 - y26_56 - y18_52 - y27_30 - y0_13 - y11_13 - y27_39 - y0_22 - y11_22 - y11_40 - y11_49 - y4_19 - y33_55 - y44_55 - y1_4 - y2_58 - y22_36 - y1_13 - y14_50 - y15_24 - y15_33 - y18_29 - y18_38 - y26_51 - y0_8 - y29_53 - y0_26 - y6_60 - y11_26 - y33_41 - y25_37 - y4_14 - y10_48 - y44_50 - y22_31 - y22_40 - y45_51 - y15_37 - y26_37 - y18_33 - y18_42 - y19_25 - y21_53 - y4_9 - y10_43 - y25_41 - y22_35 - y22_44 - y7_10 - y36_46 - y15_32 - y17_51 - y26_32 - y7_28 - y7_37 - y29_34 - y48_56 - y6_50 - y10_20 - y10_29 - y41_44 - y25_27 - y10_38 - y25_36 - y3_8 - y51_57 - y2_52 - y32_53 - y14_26 - y22_39 - y13_58 - y14_35 - y17_46 - y9_42 - y9_60 - y29_38 - y48_51 - y6_45 - y21_43 - y10_15 - y2_20 - y10_33 - y33_35 - y2_29 - y33_44 - y25_40 - y10_51 - y3_12 - y3_30 - y14_30 - y1_60 - y28_32 - y36_45 - y17_41 - y28_41 - y28_50 - y9_46 - y28_59 - y21_29 - y6_40 - y29_42 - y40_42 - y10_28 - y2_24 - y25_26 - y10_37 - y31_60 - y3_7 - y32_43 - y14_16 - y32_52 - y24_48 - y35_48 - y3_25 - y35_57 - y17_18 - y17_27 - y9_23 - y5_34 - y17_45 - y36_58 - y5_52 - y29_37 - y21_33 - y6_44 - y20_46 - y39_59 - y20_55 - y12_51 - y2_37 - y4_56 - y3_11 - y32_47 - y13_43 - y24_43 - y35_43 - y16_39 - y43_56 - y35_52 - y1_59 - y16_57 - y5_29 - y9_27 - y17_40 - y9_36 - y5_47 - y17_49 - y9_54 - y39_45 - y20_41 - y20_50 - y31_59 - y13_20 - y13_29 - y24_29 - y4_60 - y1_36 - y13_38 - y24_38 - y43_51 - y1_45 - y35_47 - y5_24 - y17_26 - y36_39 - y9_22 - y49_58 - y28_44 - y5_51 - y42_46 - y31_36 - y23_32 - y39_58 - y54_56 - y4_37 - y12_50 - y4_46 - y13_24 - y1_31 - y35_42 - y16_38 - y1_49 - y5_10 - y1_58 - y46_48 - y5_19 - y38_53 - y5_28 - y28_30 - y9_35 - y27_34 - y27_52 - y30_48 - y0_44 - y30_57 - y42_59 - y20_31 - y2_4 - y4_23 - y12_45 - y1_8 - y31_58 - y4_41 - y1_17 - y13_28 - y4_59 - y16_24 - y45_60 - y1_35 - y13_37 - y1_44 - y46_52 - y9_12 - y38_48 - y5_23 - y9_21 - y8_25 - y30_34 - y27_47 - y0_39 - y11_39 - y19_52 - y0_48 - y23_31 - y31_44 - y23_49 - y1_12 - y4_45 - y34_46 - y13_23 - y45_55 - y1_30 - y16_28 - y14_58 - y15_41 - y5_18 - y15_50 - y26_50 - y7_46 - y26_59 - y7_55 - y18_55 - y8_29 - y27_42 - y8_38 - y27_51 - y0_34 - y8_56 - y19_56 - y0_52 - y4_22 - y23_35 - y4_31 - y34_41 - y1_16 - y13_18 - y34_50 - y22_57 - y15_27 - y15_36 - y18_32 - y15_45 - y26_54 - y7_50 - y18_50 - y7_59 - y48_60 - y19_33 - y27_46 - y8_42 - y11_38 - y52_57 - y44_53 - y25_49 - y4_26 - y1_2 - y1_20 - y14_39 - y22_52 - y3_48 - y14_48 - y37_50 - y3_57 - y7_27 - y15_40 - y15_49 - y26_58 - y0_6 - y7_54 - y27_32 - y11_15 - y11_24 - y29_60 - y19_37 - y30_37 - y0_42 - y33_39 - y4_12 - y33_48 - y25_44 - y44_57 - y2_51 - y1_6 - y34_40 - y14_43 - y22_56 - y56_58 - y14_52 - y15_17 - y7_31 - y26_44 - y7_40 - y18_49 - y8_23 - y19_23 - y0_19 - y30_32 - y21_51 - y21_60 - y33_34 - y41_47 - y33_43 - y52_56 - y44_52 - y2_46 - y22_51 - y3_56
 Subject to
C1: x0+x1 <=1 
C2: x0+x2 <=1 
C3: x0+x3 <=1 
C4: x0+x4 <=1 
C5: x0+x5-y0_5 <=1 
C6: x0+x6-y0_6 <=1 
C7: x0+x7 <=1 
C8: x0+x8-y0_8 <=1 
C9: x0+x11 <=1 
C10: x0+x12 <=1 
C11: x0+x13-y0_13 <=1 
C12: x0+x14-y0_14 <=1 
C13: x0+x16 <=1 
C14: x0+x17 <=1 
C15: x0+x18 <=1 
C16: x0+x19-y0_19 <=1 
C17: x0+x20 <=1 
C18: x0+x21 <=1 
C19: x0+x22-y0_22 <=1 
C20: x0+x23 <=1 
C21: x0+x25 <=1 
C22: x0+x26-y0_26 <=1 
C23: x0+x27 <=1 
C24: x0+x28 <=1 
C25: x0+x32 <=1 
C26: x0+x34-y0_34 <=1 
C27: x0+x37-y0_37 <=1 
C28: x0+x39-y0_39 <=1 
C29: x0+x41-y0_41 <=1 
C30: x0+x42-y0_42 <=1 
C31: x0+x44-y0_44 <=1 
C32: x0+x45 <=1 
C33: x0+x46-y0_46 <=1 
C34: x0+x47 <=1 
C35: x0+x48-y0_48 <=1 
C36: x0+x49 <=1 
C37: x0+x50-y0_50 <=1 
C38: x0+x51 <=1 
C39: x0+x52-y0_52 <=1 
C40: x0+x54 <=1 
C41: x0+x55 <=1 
C42: x1+x2-y1_2 <=1 
C43: x1+x3 <=1 
C44: x1+x4-y1_4 <=1 
C45: x1+x6-y1_6 <=1 
C46: x1+x8-y1_8 <=1 
C47: x1+x9-y1_9 <=1 
C48: x1+x10 <=1 
C49: x1+x12-y1_12 <=1 
C50: x1+x13-y1_13 <=1 
C51: x1+x14 <=1 
C52: x1+x16-y1_16 <=1 
C53: x1+x17-y1_17 <=1 
C54: x1+x19-y1_19 <=1 
C55: x1+x20-y1_20 <=1 
C56: x1+x21 <=1 
C57: x1+x23 <=1 
C58: x1+x24-y1_24 <=1 
C59: x1+x25 <=1 
C60: x1+x29-y1_29 <=1 
C61: x1+x30-y1_30 <=1 
C62: x1+x31-y1_31 <=1 
C63: x1+x33 <=1 
C64: x1+x35-y1_35 <=1 
C65: x1+x36-y1_36 <=1 
C66: x1+x38 <=1 
C67: x1+x39 <=1 
C68: x1+x40 <=1 
C69: x1+x43-y1_43 <=1 
C70: x1+x44-y1_44 <=1 
C71: x1+x45-y1_45 <=1 
C72: x1+x46-y1_46 <=1 
C73: x1+x47 <=1 
C74: x1+x48-y1_48 <=1 
C75: x1+x49-y1_49 <=1 
C76: x1+x50 <=1 
C77: x1+x51-y1_51 <=1 
C78: x1+x54 <=1 
C79: x1+x55 <=1 
C80: x1+x58-y1_58 <=1 
C81: x1+x59-y1_59 <=1 
C82: x1+x60-y1_60 <=1 
C83: x2+x3 <=1 
C84: x2+x4-y2_4 <=1 
C85: x2+x5 <=1 
C86: x2+x7 <=1 
C87: x2+x8 <=1 
C88: x2+x9 <=1 
C89: x2+x11-y2_11 <=1 
C90: x2+x13-y2_13 <=1 
C91: x2+x14 <=1 
C92: x2+x15 <=1 
C93: x2+x17 <=1 
C94: x2+x20-y2_20 <=1 
C95: x2+x21 <=1 
C96: x2+x22 <=1 
C97: x2+x24-y2_24 <=1 
C98: x2+x27 <=1 
C99: x2+x29-y2_29 <=1 
C100: x2+x30 <=1 
C101: x2+x31-y2_31 <=1 
C102: x2+x32-y2_32 <=1 
C103: x2+x35-y2_35 <=1 
C104: x2+x36 <=1 
C105: x2+x37-y2_37 <=1 
C106: x2+x38 <=1 
C107: x2+x43 <=1 
C108: x2+x45 <=1 
C109: x2+x46-y2_46 <=1 
C110: x2+x49 <=1 
C111: x2+x50-y2_50 <=1 
C112: x2+x51-y2_51 <=1 
C113: x2+x52-y2_52 <=1 
C114: x2+x53 <=1 
C115: x2+x54 <=1 
C116: x2+x57 <=1 
C117: x2+x58-y2_58 <=1 
C118: x2+x60 <=1 
C119: x3+x4 <=1 
C120: x3+x5 <=1 
C121: x3+x6-y3_6 <=1 
C122: x3+x7-y3_7 <=1 
C123: x3+x8-y3_8 <=1 
C124: x3+x9-y3_9 <=1 
C125: x3+x10 <=1 
C126: x3+x11-y3_11 <=1 
C127: x3+x12-y3_12 <=1 
C128: x3+x15-y3_15 <=1 
C129: x3+x20 <=1 
C130: x3+x21 <=1 
C131: x3+x22 <=1 
C132: x3+x24-y3_24 <=1 
C133: x3+x25-y3_25 <=1 
C134: x3+x28 <=1 
C135: x3+x30-y3_30 <=1 
C136: x3+x31 <=1 
C137: x3+x32 <=1 
C138: x3+x33-y3_33 <=1 
C139: x3+x34 <=1 
C140: x3+x36 <=1 
C141: x3+x37 <=1 
C142: x3+x38 <=1 
C143: x3+x42 <=1 
C144: x3+x46-y3_46 <=1 
C145: x3+x48-y3_48 <=1 
C146: x3+x49 <=1 
C147: x3+x51 <=1 
C148: x3+x56-y3_56 <=1 
C149: x3+x57-y3_57 <=1 
C150: x3+x58 <=1 
C151: x4+x6-y4_6 <=1 
C152: x4+x9-y4_9 <=1 
C153: x4+x12-y4_12 <=1 
C154: x4+x14-y4_14 <=1 
C155: x4+x16 <=1 
C156: x4+x19-y4_19 <=1 
C157: x4+x20-y4_20 <=1 
C158: x4+x22-y4_22 <=1 
C159: x4+x23-y4_23 <=1 
C160: x4+x24 <=1 
C161: x4+x26-y4_26 <=1 
C162: x4+x29 <=1 
C163: x4+x30-y4_30 <=1 
C164: x4+x31-y4_31 <=1 
C165: x4+x33-y4_33 <=1 
C166: x4+x34 <=1 
C167: x4+x36 <=1 
C168: x4+x37-y4_37 <=1 
C169: x4+x39-y4_39 <=1 
C170: x4+x41-y4_41 <=1 
C171: x4+x42 <=1 
C172: x4+x45-y4_45 <=1 
C173: x4+x46-y4_46 <=1 
C174: x4+x48-y4_48 <=1 
C175: x4+x49-y4_49 <=1 
C176: x4+x51 <=1 
C177: x4+x53 <=1 
C178: x4+x56-y4_56 <=1 
C179: x4+x57 <=1 
C180: x4+x59-y4_59 <=1 
C181: x4+x60-y4_60 <=1 
C182: x5+x6-y5_6 <=1 
C183: x5+x7 <=1 
C184: x5+x9 <=1 
C185: x5+x10-y5_10 <=1 
C186: x5+x12 <=1 
C187: x5+x14 <=1 
C188: x5+x15 <=1 
C189: x5+x16 <=1 
C190: x5+x17 <=1 
C191: x5+x18-y5_18 <=1 
C192: x5+x19-y5_19 <=1 
C193: x5+x20 <=1 
C194: x5+x22 <=1 
C195: x5+x23-y5_23 <=1 
C196: x5+x24-y5_24 <=1 
C197: x5+x25-y5_25 <=1 
C198: x5+x26 <=1 
C199: x5+x28-y5_28 <=1 
C200: x5+x29-y5_29 <=1 
C201: x5+x30-y5_30 <=1 
C202: x5+x34-y5_34 <=1 
C203: x5+x36-y5_36 <=1 
C204: x5+x40 <=1 
C205: x5+x41-y5_41 <=1 
C206: x5+x42 <=1 
C207: x5+x43 <=1 
C208: x5+x44 <=1 
C209: x5+x45-y5_45 <=1 
C210: x5+x47-y5_47 <=1 
C211: x5+x48 <=1 
C212: x5+x49-y5_49 <=1 
C213: x5+x50-y5_50 <=1 
C214: x5+x51-y5_51 <=1 
C215: x5+x52-y5_52 <=1 
C216: x5+x53 <=1 
C217: x5+x55 <=1 
C218: x5+x57 <=1 
C219: x5+x58-y5_58 <=1 
C220: x6+x7 <=1 
C221: x6+x12 <=1 
C222: x6+x13-y6_13 <=1 
C223: x6+x14-y6_14 <=1 
C224: x6+x18-y6_18 <=1 
C225: x6+x19-y6_19 <=1 
C226: x6+x20 <=1 
C227: x6+x22 <=1 
C228: x6+x23-y6_23 <=1 
C229: x6+x24 <=1 
C230: x6+x29-y6_29 <=1 
C231: x6+x30 <=1 
C232: x6+x31 <=1 
C233: x6+x33-y6_33 <=1 
C234: x6+x37-y6_37 <=1 
C235: x6+x38-y6_38 <=1 
C236: x6+x40-y6_40 <=1 
C237: x6+x43 <=1 
C238: x6+x44-y6_44 <=1 
C239: x6+x45-y6_45 <=1 
C240: x6+x47-y6_47 <=1 
C241: x6+x48-y6_48 <=1 
C242: x6+x50-y6_50 <=1 
C243: x6+x52-y6_52 <=1 
C244: x6+x54 <=1 
C245: x6+x55 <=1 
C246: x6+x57-y6_57 <=1 
C247: x6+x59 <=1 
C248: x6+x60-y6_60 <=1 
C249: x7+x8 <=1 
C250: x7+x10-y7_10 <=1 
C251: x7+x12-y7_12 <=1 
C252: x7+x16 <=1 
C253: x7+x17 <=1 
C254: x7+x18 <=1 
C255: x7+x23 <=1 
C256: x7+x25-y7_25 <=1 
C257: x7+x27-y7_27 <=1 
C258: x7+x28-y7_28 <=1 
C259: x7+x31-y7_31 <=1 
C260: x7+x32 <=1 
C261: x7+x35-y7_35 <=1 
C262: x7+x37-y7_37 <=1 
C263: x7+x38 <=1 
C264: x7+x40-y7_40 <=1 
C265: x7+x41 <=1 
C266: x7+x42 <=1 
C267: x7+x44-y7_44 <=1 
C268: x7+x46-y7_46 <=1 
C269: x7+x48-y7_48 <=1 
C270: x7+x50-y7_50 <=1 
C271: x7+x51 <=1 
C272: x7+x53-y7_53 <=1 
C273: x7+x54-y7_54 <=1 
C274: x7+x55-y7_55 <=1 
C275: x7+x56 <=1 
C276: x7+x57 <=1 
C277: x7+x58 <=1 
C278: x7+x59-y7_59 <=1 
C279: x8+x9-y8_9 <=1 
C280: x8+x11 <=1 
C281: x8+x13-y8_13 <=1 
C282: x8+x16 <=1 
C283: x8+x23-y8_23 <=1 
C284: x8+x25-y8_25 <=1 
C285: x8+x29-y8_29 <=1 
C286: x8+x30 <=1 
C287: x8+x31-y8_31 <=1 
C288: x8+x34 <=1 
C289: x8+x35 <=1 
C290: x8+x38-y8_38 <=1 
C291: x8+x39 <=1 
C292: x8+x40-y8_40 <=1 
C293: x8+x41 <=1 
C294: x8+x42-y8_42 <=1 
C295: x8+x46 <=1 
C296: x8+x47 <=1 
C297: x8+x51 <=1 
C298: x8+x54 <=1 
C299: x8+x56-y8_56 <=1 
C300: x8+x58 <=1 
C301: x9+x10 <=1 
C302: x9+x11 <=1 
C303: x9+x12-y9_12 <=1 
C304: x9+x15-y9_15 <=1 
C305: x9+x21-y9_21 <=1 
C306: x9+x22-y9_22 <=1 
C307: x9+x23-y9_23 <=1 
C308: x9+x27-y9_27 <=1 
C309: x9+x28 <=1 
C310: x9+x32 <=1 
C311: x9+x33-y9_33 <=1 
C312: x9+x35-y9_35 <=1 
C313: x9+x36-y9_36 <=1 
C314: x9+x39 <=1 
C315: x9+x42-y9_42 <=1 
C316: x9+x44-y9_44 <=1 
C317: x9+x46-y9_46 <=1 
C318: x9+x51 <=1 
C319: x9+x52 <=1 
C320: x9+x53-y9_53 <=1 
C321: x9+x54-y9_54 <=1 
C322: x9+x57-y9_57 <=1 
C323: x9+x60-y9_60 <=1 
C324: x10+x12 <=1 
C325: x10+x15-y10_15 <=1 
C326: x10+x19 <=1 
C327: x10+x20-y10_20 <=1 
C328: x10+x22 <=1 
C329: x10+x23 <=1 
C330: x10+x25 <=1 
C331: x10+x26 <=1 
C332: x10+x27 <=1 
C333: x10+x28-y10_28 <=1 
C334: x10+x29-y10_29 <=1 
C335: x10+x30 <=1 
C336: x10+x31 <=1 
C337: x10+x33-y10_33 <=1 
C338: x10+x35-y10_35 <=1 
C339: x10+x36-y10_36 <=1 
C340: x10+x37-y10_37 <=1 
C341: x10+x38-y10_38 <=1 
C342: x10+x39-y10_39 <=1 
C343: x10+x40 <=1 
C344: x10+x42 <=1 
C345: x10+x43-y10_43 <=1 
C346: x10+x44 <=1 
C347: x10+x45-y10_45 <=1 
C348: x10+x46 <=1 
C349: x10+x48-y10_48 <=1 
C350: x10+x49 <=1 
C351: x10+x50 <=1 
C352: x10+x51-y10_51 <=1 
C353: x10+x54 <=1 
C354: x10+x58 <=1 
C355: x10+x59 <=1 
C356: x10+x60 <=1 
C357: x11+x13-y11_13 <=1 
C358: x11+x14 <=1 
C359: x11+x15-y11_15 <=1 
C360: x11+x18 <=1 
C361: x11+x22-y11_22 <=1 
C362: x11+x24-y11_24 <=1 
C363: x11+x25 <=1 
C364: x11+x26-y11_26 <=1 
C365: x11+x30 <=1 
C366: x11+x34 <=1 
C367: x11+x36-y11_36 <=1 
C368: x11+x38-y11_38 <=1 
C369: x11+x39-y11_39 <=1 
C370: x11+x40-y11_40 <=1 
C371: x11+x45 <=1 
C372: x11+x46 <=1 
C373: x11+x47 <=1 
C374: x11+x49-y11_49 <=1 
C375: x11+x51 <=1 
C376: x11+x52 <=1 
C377: x11+x59-y11_59 <=1 
C378: x11+x60-y11_60 <=1 
C379: x12+x15 <=1 
C380: x12+x16 <=1 
C381: x12+x18 <=1 
C382: x12+x20-y12_20 <=1 
C383: x12+x21 <=1 
C384: x12+x23 <=1 
C385: x12+x28-y12_28 <=1 
C386: x12+x30 <=1 
C387: x12+x31 <=1 
C388: x12+x34-y12_34 <=1 
C389: x12+x35 <=1 
C390: x12+x37-y12_37 <=1 
C391: x12+x38-y12_38 <=1 
C392: x12+x39-y12_39 <=1 
C393: x12+x40 <=1 
C394: x12+x41 <=1 
C395: x12+x43 <=1 
C396: x12+x45-y12_45 <=1 
C397: x12+x48-y12_48 <=1 
C398: x12+x50-y12_50 <=1 
C399: x12+x51-y12_51 <=1 
C400: x12+x52-y12_52 <=1 
C401: x12+x53-y12_53 <=1 
C402: x12+x56 <=1 
C403: x12+x57-y12_57 <=1 
C404: x12+x58-y12_58 <=1 
C405: x13+x14 <=1 
C406: x13+x17-y13_17 <=1 
C407: x13+x18-y13_18 <=1 
C408: x13+x20-y13_20 <=1 
C409: x13+x21-y13_21 <=1 
C410: x13+x23-y13_23 <=1 
C411: x13+x24-y13_24 <=1 
C412: x13+x27 <=1 
C413: x13+x28-y13_28 <=1 
C414: x13+x29-y13_29 <=1 
C415: x13+x30-y13_30 <=1 
C416: x13+x31-y13_31 <=1 
C417: x13+x32-y13_32 <=1 
C418: x13+x37-y13_37 <=1 
C419: x13+x38-y13_38 <=1 
C420: x13+x41 <=1 
C421: x13+x43-y13_43 <=1 
C422: x13+x44-y13_44 <=1 
C423: x13+x45 <=1 
C424: x13+x48 <=1 
C425: x13+x50-y13_50 <=1 
C426: x13+x51-y13_51 <=1 
C427: x13+x53 <=1 
C428: x13+x55-y13_55 <=1 
C429: x13+x56 <=1 
C430: x13+x57 <=1 
C431: x13+x58-y13_58 <=1 
C432: x13+x59 <=1 
C433: x14+x16-y14_16 <=1 
C434: x14+x18-y14_18 <=1 
C435: x14+x19-y14_19 <=1 
C436: x14+x23-y14_23 <=1 
C437: x14+x24 <=1 
C438: x14+x25 <=1 
C439: x14+x26-y14_26 <=1 
C440: x14+x30-y14_30 <=1 
C441: x14+x34 <=1 
C442: x14+x35-y14_35 <=1 
C443: x14+x36 <=1 
C444: x14+x37 <=1 
C445: x14+x39-y14_39 <=1 
C446: x14+x40 <=1 
C447: x14+x42-y14_42 <=1 
C448: x14+x43-y14_43 <=1 
C449: x14+x45 <=1 
C450: x14+x46-y14_46 <=1 
C451: x14+x48-y14_48 <=1 
C452: x14+x50-y14_50 <=1 
C453: x14+x51 <=1 
C454: x14+x52-y14_52 <=1 
C455: x14+x53 <=1 
C456: x14+x54 <=1 
C457: x14+x55-y14_55 <=1 
C458: x14+x57 <=1 
C459: x14+x58-y14_58 <=1 
C460: x15+x17-y15_17 <=1 
C461: x15+x21-y15_21 <=1 
C462: x15+x22 <=1 
C463: x15+x23 <=1 
C464: x15+x24-y15_24 <=1 
C465: x15+x25-y15_25 <=1 
C466: x15+x26 <=1 
C467: x15+x27-y15_27 <=1 
C468: x15+x28 <=1 
C469: x15+x30 <=1 
C470: x15+x31 <=1 
C471: x15+x32-y15_32 <=1 
C472: x15+x33-y15_33 <=1 
C473: x15+x36-y15_36 <=1 
C474: x15+x37-y15_37 <=1 
C475: x15+x39-y15_39 <=1 
C476: x15+x40-y15_40 <=1 
C477: x15+x41-y15_41 <=1 
C478: x15+x42 <=1 
C479: x15+x45-y15_45 <=1 
C480: x15+x47 <=1 
C481: x15+x49-y15_49 <=1 
C482: x15+x50-y15_50 <=1 
C483: x15+x51 <=1 
C484: x15+x53-y15_53 <=1 
C485: x16+x17 <=1 
C486: x16+x19 <=1 
C487: x16+x21 <=1 
C488: x16+x24-y16_24 <=1 
C489: x16+x26 <=1 
C490: x16+x27-y16_27 <=1 
C491: x16+x28-y16_28 <=1 
C492: x16+x30-y16_30 <=1 
C493: x16+x31-y16_31 <=1 
C494: x16+x33 <=1 
C495: x16+x34 <=1 
C496: x16+x35-y16_35 <=1 
C497: x16+x37-y16_37 <=1 
C498: x16+x38-y16_38 <=1 
C499: x16+x39-y16_39 <=1 
C500: x16+x40-y16_40 <=1 
C501: x16+x43 <=1 
C502: x16+x44 <=1 
C503: x16+x45 <=1 
C504: x16+x49-y16_49 <=1 
C505: x16+x51-y16_51 <=1 
C506: x16+x52 <=1 
C507: x16+x54-y16_54 <=1 
C508: x16+x57-y16_57 <=1 
C509: x16+x59-y16_59 <=1 
C510: x16+x60 <=1 
C511: x17+x18-y17_18 <=1 
C512: x17+x19 <=1 
C513: x17+x21 <=1 
C514: x17+x22 <=1 
C515: x17+x23-y17_23 <=1 
C516: x17+x26-y17_26 <=1 
C517: x17+x27-y17_27 <=1 
C518: x17+x28 <=1 
C519: x17+x31 <=1 
C520: x17+x33-y17_33 <=1 
C521: x17+x35 <=1 
C522: x17+x36 <=1 
C523: x17+x37-y17_37 <=1 
C524: x17+x39-y17_39 <=1 
C525: x17+x40-y17_40 <=1 
C526: x17+x41-y17_41 <=1 
C527: x17+x43 <=1 
C528: x17+x45-y17_45 <=1 
C529: x17+x46-y17_46 <=1 
C530: x17+x48-y17_48 <=1 
C531: x17+x49-y17_49 <=1 
C532: x17+x51-y17_51 <=1 
C533: x17+x54 <=1 
C534: x17+x55 <=1 
C535: x17+x57 <=1 
C536: x17+x58 <=1 
C537: x17+x60 <=1 
C538: x18+x21 <=1 
C539: x18+x24 <=1 
C540: x18+x25-y18_25 <=1 
C541: x18+x26 <=1 
C542: x18+x27 <=1 
C543: x18+x28 <=1 
C544: x18+x29-y18_29 <=1 
C545: x18+x30-y18_30 <=1 
C546: x18+x31 <=1 
C547: x18+x32-y18_32 <=1 
C548: x18+x33-y18_33 <=1 
C549: x18+x35 <=1 
C550: x18+x36 <=1 
C551: x18+x37 <=1 
C552: x18+x38-y18_38 <=1 
C553: x18+x41 <=1 
C554: x18+x42-y18_42 <=1 
C555: x18+x43 <=1 
C556: x18+x48-y18_48 <=1 
C557: x18+x49-y18_49 <=1 
C558: x18+x50-y18_50 <=1 
C559: x18+x52-y18_52 <=1 
C560: x18+x54 <=1 
C561: x18+x55-y18_55 <=1 
C562: x18+x57 <=1 
C563: x18+x58 <=1 
C564: x18+x59 <=1 
C565: x18+x60 <=1 
C566: x19+x22-y19_22 <=1 
C567: x19+x23-y19_23 <=1 
C568: x19+x25-y19_25 <=1 
C569: x19+x26 <=1 
C570: x19+x27-y19_27 <=1 
C571: x19+x28 <=1 
C572: x19+x30 <=1 
C573: x19+x32 <=1 
C574: x19+x33-y19_33 <=1 
C575: x19+x37-y19_37 <=1 
C576: x19+x38 <=1 
C577: x19+x39 <=1 
C578: x19+x42 <=1 
C579: x19+x43 <=1 
C580: x19+x44 <=1 
C581: x19+x45-y19_45 <=1 
C582: x19+x46 <=1 
C583: x19+x48 <=1 
C584: x19+x49 <=1 
C585: x19+x52-y19_52 <=1 
C586: x19+x54-y19_54 <=1 
C587: x19+x55 <=1 
C588: x19+x56-y19_56 <=1 
C589: x19+x57 <=1 
C590: x19+x58 <=1 
C591: x20+x21 <=1 
C592: x20+x28-y20_28 <=1 
C593: x20+x29 <=1 
C594: x20+x31-y20_31 <=1 
C595: x20+x33 <=1 
C596: x20+x34-y20_34 <=1 
C597: x20+x38-y20_38 <=1 
C598: x20+x40 <=1 
C599: x20+x41-y20_41 <=1 
C600: x20+x43-y20_43 <=1 
C601: x20+x46-y20_46 <=1 
C602: x20+x49 <=1 
C603: x20+x50-y20_50 <=1 
C604: x20+x51 <=1 
C605: x20+x52-y20_52 <=1 
C606: x20+x53-y20_53 <=1 
C607: x20+x55-y20_55 <=1 
C608: x20+x56-y20_56 <=1 
C609: x20+x57 <=1 
C610: x20+x60 <=1 
C611: x21+x23 <=1 
C612: x21+x24 <=1 
C613: x21+x25 <=1 
C614: x21+x28 <=1 
C615: x21+x29-y21_29 <=1 
C616: x21+x30 <=1 
C617: x21+x31 <=1 
C618: x21+x32 <=1 
C619: x21+x33-y21_33 <=1 
C620: x21+x36 <=1 
C621: x21+x42 <=1 
C622: x21+x43-y21_43 <=1 
C623: x21+x44 <=1 
C624: x21+x45-y21_45 <=1 
C625: x21+x46-y21_46 <=1 
C626: x21+x47 <=1 
C627: x21+x51-y21_51 <=1 
C628: x21+x52 <=1 
C629: x21+x53-y21_53 <=1 
C630: x21+x55 <=1 
C631: x21+x56 <=1 
C632: x21+x57 <=1 
C633: x21+x60-y21_60 <=1 
C634: x22+x23-y22_23 <=1 
C635: x22+x24 <=1 
C636: x22+x27 <=1 
C637: x22+x30 <=1 
C638: x22+x31-y22_31 <=1 
C639: x22+x32-y22_32 <=1 
C640: x22+x35-y22_35 <=1 
C641: x22+x36-y22_36 <=1 
C642: x22+x39-y22_39 <=1 
C643: x22+x40-y22_40 <=1 
C644: x22+x44-y22_44 <=1 
C645: x22+x45 <=1 
C646: x22+x46-y22_46 <=1 
C647: x22+x49 <=1 
C648: x22+x50-y22_50 <=1 
C649: x22+x51-y22_51 <=1 
C650: x22+x52-y22_52 <=1 
C651: x22+x53 <=1 
C652: x22+x56-y22_56 <=1 
C653: x22+x57-y22_57 <=1 
C654: x22+x58 <=1 
C655: x22+x59 <=1 
C656: x22+x60 <=1 
C657: x23+x27 <=1 
C658: x23+x28-y23_28 <=1 
C659: x23+x29 <=1 
C660: x23+x30 <=1 
C661: x23+x31-y23_31 <=1 
C662: x23+x32-y23_32 <=1 
C663: x23+x33 <=1 
C664: x23+x34 <=1 
C665: x23+x35-y23_35 <=1 
C666: x23+x37-y23_37 <=1 
C667: x23+x38 <=1 
C668: x23+x39-y23_39 <=1 
C669: x23+x42 <=1 
C670: x23+x44 <=1 
C671: x23+x47 <=1 
C672: x23+x49-y23_49 <=1 
C673: x23+x50 <=1 
C674: x23+x53-y23_53 <=1 
C675: x23+x54 <=1 
C676: x23+x55 <=1 
C677: x23+x58 <=1 
C678: x24+x25-y24_25 <=1 
C679: x24+x27-y24_27 <=1 
C680: x24+x29-y24_29 <=1 
C681: x24+x31 <=1 
C682: x24+x32-y24_32 <=1 
C683: x24+x34 <=1 
C684: x24+x36 <=1 
C685: x24+x38-y24_38 <=1 
C686: x24+x39 <=1 
C687: x24+x41 <=1 
C688: x24+x42 <=1 
C689: x24+x43-y24_43 <=1 
C690: x24+x44-y24_44 <=1 
C691: x24+x45 <=1 
C692: x24+x48-y24_48 <=1 
C693: x24+x49-y24_49 <=1 
C694: x24+x50 <=1 
C695: x24+x51 <=1 
C696: x24+x52 <=1 
C697: x24+x53 <=1 
C698: x24+x57 <=1 
C699: x24+x59 <=1 
C700: x25+x26-y25_26 <=1 
C701: x25+x27-y25_27 <=1 
C702: x25+x28-y25_28 <=1 
C703: x25+x29 <=1 
C704: x25+x31 <=1 
C705: x25+x32 <=1 
C706: x25+x33-y25_33 <=1 
C707: x25+x34 <=1 
C708: x25+x36-y25_36 <=1 
C709: x25+x37-y25_37 <=1 
C710: x25+x38-y25_38 <=1 
C711: x25+x40-y25_40 <=1 
C712: x25+x41-y25_41 <=1 
C713: x25+x44-y25_44 <=1 
C714: x25+x48 <=1 
C715: x25+x49-y25_49 <=1 
C716: x25+x50 <=1 
C717: x25+x53 <=1 
C718: x25+x54 <=1 
C719: x25+x55 <=1 
C720: x25+x56-y25_56 <=1 
C721: x25+x57 <=1 
C722: x25+x59 <=1 
C723: x26+x29-y26_29 <=1 
C724: x26+x31 <=1 
C725: x26+x32-y26_32 <=1 
C726: x26+x33 <=1 
C727: x26+x34 <=1 
C728: x26+x37-y26_37 <=1 
C729: x26+x38 <=1 
C730: x26+x39 <=1 
C731: x26+x41 <=1 
C732: x26+x42 <=1 
C733: x26+x43 <=1 
C734: x26+x44-y26_44 <=1 
C735: x26+x45 <=1 
C736: x26+x47 <=1 
C737: x26+x48-y26_48 <=1 
C738: x26+x50-y26_50 <=1 
C739: x26+x51-y26_51 <=1 
C740: x26+x52 <=1 
C741: x26+x53 <=1 
C742: x26+x54-y26_54 <=1 
C743: x26+x55 <=1 
C744: x26+x56-y26_56 <=1 
C745: x26+x57 <=1 
C746: x26+x58-y26_58 <=1 
C747: x26+x59-y26_59 <=1 
C748: x26+x60 <=1 
C749: x27+x28 <=1 
C750: x27+x30-y27_30 <=1 
C751: x27+x32-y27_32 <=1 
C752: x27+x34-y27_34 <=1 
C753: x27+x35-y27_35 <=1 
C754: x27+x36 <=1 
C755: x27+x37 <=1 
C756: x27+x38 <=1 
C757: x27+x39-y27_39 <=1 
C758: x27+x41 <=1 
C759: x27+x42-y27_42 <=1 
C760: x27+x46-y27_46 <=1 
C761: x27+x47-y27_47 <=1 
C762: x27+x49 <=1 
C763: x27+x50-y27_50 <=1 
C764: x27+x51-y27_51 <=1 
C765: x27+x52-y27_52 <=1 
C766: x27+x54 <=1 
C767: x27+x55-y27_55 <=1 
C768: x27+x56 <=1 
C769: x27+x58-y27_58 <=1 
C770: x27+x59-y27_59 <=1 
C771: x28+x30-y28_30 <=1 
C772: x28+x32-y28_32 <=1 
C773: x28+x33-y28_33 <=1 
C774: x28+x34 <=1 
C775: x28+x35 <=1 
C776: x28+x38 <=1 
C777: x28+x39-y28_39 <=1 
C778: x28+x40 <=1 
C779: x28+x41-y28_41 <=1 
C780: x28+x44-y28_44 <=1 
C781: x28+x46 <=1 
C782: x28+x50-y28_50 <=1 
C783: x28+x51 <=1 
C784: x28+x52 <=1 
C785: x28+x54 <=1 
C786: x28+x56 <=1 
C787: x28+x57-y28_57 <=1 
C788: x28+x58-y28_58 <=1 
C789: x28+x59-y28_59 <=1 
C790: x29+x30 <=1 
C791: x29+x31 <=1 
C792: x29+x33 <=1 
C793: x29+x34-y29_34 <=1 
C794: x29+x37-y29_37 <=1 
C795: x29+x38-y29_38 <=1 
C796: x29+x40 <=1 
C797: x29+x42-y29_42 <=1 
C798: x29+x43 <=1 
C799: x29+x44 <=1 
C800: x29+x49 <=1 
C801: x29+x50 <=1 
C802: x29+x51 <=1 
C803: x29+x53-y29_53 <=1 
C804: x29+x54 <=1 
C805: x29+x55 <=1 
C806: x29+x56 <=1 
C807: x29+x57 <=1 
C808: x29+x60-y29_60 <=1 
C809: x30+x31 <=1 
C810: x30+x32-y30_32 <=1 
C811: x30+x34-y30_34 <=1 
C812: x30+x37-y30_37 <=1 
C813: x30+x39 <=1 
C814: x30+x40-y30_40 <=1 
C815: x30+x41-y30_41 <=1 
C816: x30+x44 <=1 
C817: x30+x47 <=1 
C818: x30+x48-y30_48 <=1 
C819: x30+x49-y30_49 <=1 
C820: x30+x52 <=1 
C821: x30+x53 <=1 
C822: x30+x54-y30_54 <=1 
C823: x30+x55-y30_55 <=1 
C824: x30+x56 <=1 
C825: x30+x57-y30_57 <=1 
C826: x30+x60 <=1 
C827: x31+x32 <=1 
C828: x31+x34-y31_34 <=1 
C829: x31+x36-y31_36 <=1 
C830: x31+x39 <=1 
C831: x31+x42-y31_42 <=1 
C832: x31+x43-y31_43 <=1 
C833: x31+x44-y31_44 <=1 
C834: x31+x45 <=1 
C835: x31+x47-y31_47 <=1 
C836: x31+x48-y31_48 <=1 
C837: x31+x51-y31_51 <=1 
C838: x31+x54 <=1 
C839: x31+x57-y31_57 <=1 
C840: x31+x58-y31_58 <=1 
C841: x31+x59-y31_59 <=1 
C842: x31+x60-y31_60 <=1 
C843: x32+x34 <=1 
C844: x32+x35 <=1 
C845: x32+x36-y32_36 <=1 
C846: x32+x39-y32_39 <=1 
C847: x32+x40-y32_40 <=1 
C848: x32+x42 <=1 
C849: x32+x43-y32_43 <=1 
C850: x32+x45 <=1 
C851: x32+x47-y32_47 <=1 
C852: x32+x48 <=1 
C853: x32+x49-y32_49 <=1 
C854: x32+x50 <=1 
C855: x32+x52-y32_52 <=1 
C856: x32+x53-y32_53 <=1 
C857: x32+x56 <=1 
C858: x32+x57 <=1 
C859: x32+x58 <=1 
C860: x32+x59-y32_59 <=1 
C861: x32+x60-y32_60 <=1 
C862: x33+x34-y33_34 <=1 
C863: x33+x35-y33_35 <=1 
C864: x33+x39-y33_39 <=1 
C865: x33+x40 <=1 
C866: x33+x41-y33_41 <=1 
C867: x33+x42 <=1 
C868: x33+x43-y33_43 <=1 
C869: x33+x44-y33_44 <=1 
C870: x33+x48-y33_48 <=1 
C871: x33+x51-y33_51 <=1 
C872: x33+x54 <=1 
C873: x33+x55-y33_55 <=1 
C874: x33+x56 <=1 
C875: x33+x59 <=1 
C876: x33+x60-y33_60 <=1 
C877: x34+x36 <=1 
C878: x34+x37 <=1 
C879: x34+x39-y34_39 <=1 
C880: x34+x40-y34_40 <=1 
C881: x34+x41-y34_41 <=1 
C882: x34+x42 <=1 
C883: x34+x46-y34_46 <=1 
C884: x34+x47 <=1 
C885: x34+x50-y34_50 <=1 
C886: x34+x52 <=1 
C887: x34+x53-y34_53 <=1 
C888: x34+x56 <=1 
C889: x34+x57-y34_57 <=1 
C890: x34+x58-y34_58 <=1 
C891: x34+x59 <=1 
C892: x35+x37 <=1 
C893: x35+x40-y35_40 <=1 
C894: x35+x42-y35_42 <=1 
C895: x35+x43-y35_43 <=1 
C896: x35+x44-y35_44 <=1 
C897: x35+x45-y35_45 <=1 
C898: x35+x47-y35_47 <=1 
C899: x35+x48-y35_48 <=1 
C900: x35+x49-y35_49 <=1 
C901: x35+x52-y35_52 <=1 
C902: x35+x53 <=1 
C903: x35+x54 <=1 
C904: x35+x57-y35_57 <=1 
C905: x35+x58-y35_58 <=1 
C906: x35+x59-y35_59 <=1 
C907: x35+x60 <=1 
C908: x36+x37 <=1 
C909: x36+x38-y36_38 <=1 
C910: x36+x39-y36_39 <=1 
C911: x36+x40 <=1 
C912: x36+x41 <=1 
C913: x36+x42-y36_42 <=1 
C914: x36+x43-y36_43 <=1 
C915: x36+x45-y36_45 <=1 
C916: x36+x46-y36_46 <=1 
C917: x36+x47-y36_47 <=1 
C918: x36+x48-y36_48 <=1 
C919: x36+x51-y36_51 <=1 
C920: x36+x54 <=1 
C921: x36+x57 <=1 
C922: x36+x58-y36_58 <=1 
C923: x37+x39-y37_39 <=1 
C924: x37+x43 <=1 
C925: x37+x46 <=1 
C926: x37+x48-y37_48 <=1 
C927: x37+x50-y37_50 <=1 
C928: x37+x53-y37_53 <=1 
C929: x37+x55 <=1 
C930: x37+x59 <=1 
C931: x37+x60 <=1 
C932: x38+x39 <=1 
C933: x38+x41-y38_41 <=1 
C934: x38+x46-y38_46 <=1 
C935: x38+x48-y38_48 <=1 
C936: x38+x50 <=1 
C937: x38+x51 <=1 
C938: x38+x52 <=1 
C939: x38+x53-y38_53 <=1 
C940: x38+x54 <=1 
C941: x38+x55-y38_55 <=1 
C942: x38+x56 <=1 
C943: x38+x59 <=1 
C944: x39+x41 <=1 
C945: x39+x42-y39_42 <=1 
C946: x39+x43 <=1 
C947: x39+x45-y39_45 <=1 
C948: x39+x48-y39_48 <=1 
C949: x39+x52-y39_52 <=1 
C950: x39+x53 <=1 
C951: x39+x56 <=1 
C952: x39+x58-y39_58 <=1 
C953: x39+x59-y39_59 <=1 
C954: x40+x42-y40_42 <=1 
C955: x40+x44 <=1 
C956: x40+x45-y40_45 <=1 
C957: x40+x49 <=1 
C958: x40+x50-y40_50 <=1 
C959: x40+x52 <=1 
C960: x40+x53 <=1 
C961: x40+x54 <=1 
C962: x40+x56 <=1 
C963: x40+x59 <=1 
C964: x40+x60 <=1 
C965: x41+x44-y41_44 <=1 
C966: x41+x45 <=1 
C967: x41+x46 <=1 
C968: x41+x47-y41_47 <=1 
C969: x41+x48 <=1 
C970: x41+x51-y41_51 <=1 
C971: x41+x55-y41_55 <=1 
C972: x41+x56 <=1 
C973: x41+x58 <=1 
C974: x41+x59 <=1 
C975: x41+x60 <=1 
C976: x42+x43-y42_43 <=1 
C977: x42+x44 <=1 
C978: x42+x46-y42_46 <=1 
C979: x42+x49 <=1 
C980: x42+x51 <=1 
C981: x42+x52-y42_52 <=1 
C982: x42+x53 <=1 
C983: x42+x56 <=1 
C984: x42+x58-y42_58 <=1 
C985: x42+x59-y42_59 <=1 
C986: x42+x60 <=1 
C987: x43+x44-y43_44 <=1 
C988: x43+x46 <=1 
C989: x43+x47 <=1 
C990: x43+x49 <=1 
C991: x43+x51-y43_51 <=1 
C992: x43+x54 <=1 
C993: x43+x56-y43_56 <=1 
C994: x43+x57 <=1 
C995: x43+x59 <=1 
C996: x43+x60 <=1 
C997: x44+x45 <=1 
C998: x44+x48 <=1 
C999: x44+x50-y44_50 <=1 
C1000: x44+x51-y44_51 <=1 
C1001: x44+x52-y44_52 <=1 
C1002: x44+x53-y44_53 <=1 
C1003: x44+x55-y44_55 <=1 
C1004: x44+x56-y44_56 <=1 
C1005: x44+x57-y44_57 <=1 
C1006: x44+x58 <=1 
C1007: x44+x60-y44_60 <=1 
C1008: x45+x46 <=1 
C1009: x45+x49 <=1 
C1010: x45+x51-y45_51 <=1 
C1011: x45+x52-y45_52 <=1 
C1012: x45+x53 <=1 
C1013: x45+x54 <=1 
C1014: x45+x55-y45_55 <=1 
C1015: x45+x56 <=1 
C1016: x45+x57-y45_57 <=1 
C1017: x45+x58 <=1 
C1018: x45+x60-y45_60 <=1 
C1019: x46+x48-y46_48 <=1 
C1020: x46+x49-y46_49 <=1 
C1021: x46+x52-y46_52 <=1 
C1022: x46+x54 <=1 
C1023: x46+x55 <=1 
C1024: x46+x59 <=1 
C1025: x47+x48-y47_48 <=1 
C1026: x47+x51-y47_51 <=1 
C1027: x47+x55 <=1 
C1028: x47+x56-y47_56 <=1 
C1029: x47+x57 <=1 
C1030: x47+x58 <=1 
C1031: x47+x60 <=1 
C1032: x48+x49 <=1 
C1033: x48+x51-y48_51 <=1 
C1034: x48+x54 <=1 
C1035: x48+x55 <=1 
C1036: x48+x56-y48_56 <=1 
C1037: x48+x57 <=1 
C1038: x48+x58 <=1 
C1039: x48+x59 <=1 
C1040: x48+x60-y48_60 <=1 
C1041: x49+x50-y49_50 <=1 
C1042: x49+x51 <=1 
C1043: x49+x52 <=1 
C1044: x49+x53 <=1 
C1045: x49+x54 <=1 
C1046: x49+x55 <=1 
C1047: x49+x56 <=1 
C1048: x49+x57 <=1 
C1049: x49+x58-y49_58 <=1 
C1050: x49+x59-y49_59 <=1 
C1051: x50+x51 <=1 
C1052: x50+x52 <=1 
C1053: x50+x53-y50_53 <=1 
C1054: x50+x56 <=1 
C1055: x50+x59 <=1 
C1056: x50+x60 <=1 
C1057: x51+x52 <=1 
C1058: x51+x53 <=1 
C1059: x51+x54-y51_54 <=1 
C1060: x51+x56 <=1 
C1061: x51+x57-y51_57 <=1 
C1062: x51+x59 <=1 
C1063: x52+x54 <=1 
C1064: x52+x55-y52_55 <=1 
C1065: x52+x56-y52_56 <=1 
C1066: x52+x57-y52_57 <=1 
C1067: x52+x60-y52_60 <=1 
C1068: x53+x55 <=1 
C1069: x53+x57-y53_57 <=1 
C1070: x53+x58 <=1 
C1071: x54+x55-y54_55 <=1 
C1072: x54+x56-y54_56 <=1 
C1073: x54+x59-y54_59 <=1 
C1074: x55+x57 <=1 
C1075: x55+x60-y55_60 <=1 
C1076: x56+x58-y56_58 <=1 
C1077: x56+x59 <=1 
C1078: x56+x60 <=1 
C1079: x57+x59 <=1 
C1080: x57+x60 <=1 
C1081: x59+x60 <=1 

binary
x0
x1
x2
x3
x4
x5
x6
x7
x8
x9
x10
x11
x12
x13
x14
x15
x16
x17
x18
x19
x20
x21
x22
x23
x24
x25
x26
x27
x28
x29
x30
x31
x32
x33
x34
x35
x36
x37
x38
x39
x40
x41
x42
x43
x44
x45
x46
x47
x48
x49
x50
x51
x52
x53
x54
x55
x56
x57
x58
x59
x60
