problem_generation/data/GISP/train/er_n=61_m=1081_p=0.60_SET2_setparam=100.00_alpha=0.50_404.sol
objective value:                                 1267
x4                                                  1 	(obj:100)
x6                                                  1 	(obj:100)
x9                                                  1 	(obj:100)
x13                                                 1 	(obj:100)
x17                                                 1 	(obj:100)
x18                                                 1 	(obj:100)
x25                                                 1 	(obj:100)
x33                                                 1 	(obj:100)
x38                                                 1 	(obj:100)
x44                                                 1 	(obj:100)
x46                                                 1 	(obj:100)
x47                                                 1 	(obj:100)
x49                                                 1 	(obj:100)
y25_38                                              1 	(obj:-1)
y9_44                                               1 	(obj:-1)
y6_38                                               1 	(obj:-1)
y6_47                                               1 	(obj:-1)
y25_33                                              1 	(obj:-1)
y6_33                                               1 	(obj:-1)
y4_49                                               1 	(obj:-1)
y17_33                                              1 	(obj:-1)
y9_33                                               1 	(obj:-1)
y6_18                                               1 	(obj:-1)
y13_17                                              1 	(obj:-1)
y13_44                                              1 	(obj:-1)
y38_46                                              1 	(obj:-1)
y6_13                                               1 	(obj:-1)
y46_49                                              1 	(obj:-1)
y4_6                                                1 	(obj:-1)
y4_33                                               1 	(obj:-1)
y18_25                                              1 	(obj:-1)
y18_38                                              1 	(obj:-1)
y18_33                                              1 	(obj:-1)
y4_9                                                1 	(obj:-1)
y17_46                                              1 	(obj:-1)
y33_44                                              1 	(obj:-1)
y9_46                                               1 	(obj:-1)
y17_18                                              1 	(obj:-1)
y6_44                                               1 	(obj:-1)
y17_49                                              1 	(obj:-1)
y13_38                                              1 	(obj:-1)
y4_46                                               1 	(obj:-1)
y13_18                                              1 	(obj:-1)
y25_49                                              1 	(obj:-1)
y25_44                                              1 	(obj:-1)
y18_49                                              1 	(obj:-1)
